* Signature: 0xcd583f2aa9f1c9c6
NAME knapsack_40_10_3
ROWS
 N  OBJ
 L  primal_upper
 L  primal_lower0
 L  primal_lower1
 L  primal_lower2
 L  primal_lower3
 L  primal_lower4
 L  primal_lower5
 L  primal_lower6
 L  primal_lower7
 L  primal_lower8
 L  primal_lower9
 L  interdiction[0]
 L  interdiction[1]
 L  interdiction[2]
 L  interdiction[3]
 L  interdiction[4]
 L  interdiction[5]
 L  interdiction[6]
 L  interdiction[7]
 L  interdiction[8]
 L  interdiction[9]
 L  interdiction[10]
 L  interdiction[11]
 L  interdiction[12]
 L  interdiction[13]
 L  interdiction[14]
 L  interdiction[15]
 L  interdiction[16]
 L  interdiction[17]
 L  interdiction[18]
 L  interdiction[19]
 L  interdiction[20]
 L  interdiction[21]
 L  interdiction[22]
 L  interdiction[23]
 L  interdiction[24]
 L  interdiction[25]
 L  interdiction[26]
 L  interdiction[27]
 L  interdiction[28]
 L  interdiction[29]
 L  interdiction[30]
 L  interdiction[31]
 L  interdiction[32]
 L  interdiction[33]
 L  interdiction[34]
 L  interdiction[35]
 L  interdiction[36]
 L  interdiction[37]
 L  interdiction[38]
 L  interdiction[39]
 L  mccormick1[0]
 L  mccormick1[1]
 L  mccormick1[2]
 L  mccormick1[3]
 L  mccormick1[4]
 L  mccormick1[5]
 L  mccormick1[6]
 L  mccormick1[7]
 L  mccormick1[8]
 L  mccormick1[9]
 L  mccormick1[10]
 L  mccormick1[11]
 L  mccormick1[12]
 L  mccormick1[13]
 L  mccormick1[14]
 L  mccormick1[15]
 L  mccormick1[16]
 L  mccormick1[17]
 L  mccormick1[18]
 L  mccormick1[19]
 L  mccormick1[20]
 L  mccormick1[21]
 L  mccormick1[22]
 L  mccormick1[23]
 L  mccormick1[24]
 L  mccormick1[25]
 L  mccormick1[26]
 L  mccormick1[27]
 L  mccormick1[28]
 L  mccormick1[29]
 L  mccormick1[30]
 L  mccormick1[31]
 L  mccormick1[32]
 L  mccormick1[33]
 L  mccormick1[34]
 L  mccormick1[35]
 L  mccormick1[36]
 L  mccormick1[37]
 L  mccormick1[38]
 L  mccormick1[39]
 L  mccormick2[0]
 L  mccormick2[1]
 L  mccormick2[2]
 L  mccormick2[3]
 L  mccormick2[4]
 L  mccormick2[5]
 L  mccormick2[6]
 L  mccormick2[7]
 L  mccormick2[8]
 L  mccormick2[9]
 L  mccormick2[10]
 L  mccormick2[11]
 L  mccormick2[12]
 L  mccormick2[13]
 L  mccormick2[14]
 L  mccormick2[15]
 L  mccormick2[16]
 L  mccormick2[17]
 L  mccormick2[18]
 L  mccormick2[19]
 L  mccormick2[20]
 L  mccormick2[21]
 L  mccormick2[22]
 L  mccormick2[23]
 L  mccormick2[24]
 L  mccormick2[25]
 L  mccormick2[26]
 L  mccormick2[27]
 L  mccormick2[28]
 L  mccormick2[29]
 L  mccormick2[30]
 L  mccormick2[31]
 L  mccormick2[32]
 L  mccormick2[33]
 L  mccormick2[34]
 L  mccormick2[35]
 L  mccormick2[36]
 L  mccormick2[37]
 L  mccormick2[38]
 L  mccormick2[39]
 L  mccormick3[0]
 L  mccormick3[1]
 L  mccormick3[2]
 L  mccormick3[3]
 L  mccormick3[4]
 L  mccormick3[5]
 L  mccormick3[6]
 L  mccormick3[7]
 L  mccormick3[8]
 L  mccormick3[9]
 L  mccormick3[10]
 L  mccormick3[11]
 L  mccormick3[12]
 L  mccormick3[13]
 L  mccormick3[14]
 L  mccormick3[15]
 L  mccormick3[16]
 L  mccormick3[17]
 L  mccormick3[18]
 L  mccormick3[19]
 L  mccormick3[20]
 L  mccormick3[21]
 L  mccormick3[22]
 L  mccormick3[23]
 L  mccormick3[24]
 L  mccormick3[25]
 L  mccormick3[26]
 L  mccormick3[27]
 L  mccormick3[28]
 L  mccormick3[29]
 L  mccormick3[30]
 L  mccormick3[31]
 L  mccormick3[32]
 L  mccormick3[33]
 L  mccormick3[34]
 L  mccormick3[35]
 L  mccormick3[36]
 L  mccormick3[37]
 L  mccormick3[38]
 L  mccormick3[39]
COLUMNS
    MARKER    'MARKER'                 'INTORG'
    x[0]      OBJ       97.12
    x[0]      interdiction[0]  1
    x[1]      OBJ       158.6
    x[1]      interdiction[1]  1
    x[2]      OBJ       144.41
    x[2]      interdiction[2]  1
    x[3]      OBJ       89.82
    x[3]      interdiction[3]  1
    x[4]      OBJ       60.89
    x[4]      interdiction[4]  1
    x[5]      OBJ       93.6
    x[5]      interdiction[5]  1
    x[6]      OBJ       73.92
    x[6]      interdiction[6]  1
    x[7]      OBJ       132.64
    x[7]      interdiction[7]  1
    x[8]      OBJ       113.91
    x[8]      interdiction[8]  1
    x[9]      OBJ       42.16
    x[9]      interdiction[9]  1
    x[10]     OBJ       132.16
    x[10]     interdiction[10]  1
    x[11]     OBJ       90.02
    x[11]     interdiction[11]  1
    x[12]     OBJ       127.83
    x[12]     interdiction[12]  1
    x[13]     OBJ       94.02
    x[13]     interdiction[13]  1
    x[14]     OBJ       179.3
    x[14]     interdiction[14]  1
    x[15]     OBJ       63
    x[15]     interdiction[15]  1
    x[16]     OBJ       95.51
    x[16]     interdiction[16]  1
    x[17]     OBJ       132.66
    x[17]     interdiction[17]  1
    x[18]     OBJ       28.41
    x[18]     interdiction[18]  1
    x[19]     OBJ       180.46
    x[19]     interdiction[19]  1
    x[20]     OBJ       57.13
    x[20]     interdiction[20]  1
    x[21]     OBJ       66.88
    x[21]     interdiction[21]  1
    x[22]     OBJ       163.04
    x[22]     interdiction[22]  1
    x[23]     OBJ       165.19
    x[23]     interdiction[23]  1
    x[24]     OBJ       98.56
    x[24]     interdiction[24]  1
    x[25]     OBJ       99.79
    x[25]     interdiction[25]  1
    x[26]     OBJ       174.16
    x[26]     interdiction[26]  1
    x[27]     OBJ       104.73
    x[27]     interdiction[27]  1
    x[28]     OBJ       120.85
    x[28]     interdiction[28]  1
    x[29]     OBJ       54.75
    x[29]     interdiction[29]  1
    x[30]     OBJ       108.68
    x[30]     interdiction[30]  1
    x[31]     OBJ       66
    x[31]     interdiction[31]  1
    x[32]     OBJ       87.4
    x[32]     interdiction[32]  1
    x[33]     OBJ       106.21
    x[33]     interdiction[33]  1
    x[34]     OBJ       152.02
    x[34]     interdiction[34]  1
    x[35]     OBJ       73.71
    x[35]     interdiction[35]  1
    x[36]     OBJ       150.17
    x[36]     interdiction[36]  1
    x[37]     OBJ       148.5
    x[37]     interdiction[37]  1
    x[38]     OBJ       40.47
    x[38]     interdiction[38]  1
    x[39]     OBJ       151.84
    x[39]     interdiction[39]  1
    y[0]      OBJ       -841
    y[0]      primal_upper  741
    y[0]      mccormick2[0]  -1
    y[0]      mccormick3[0]  1
    y[1]      OBJ       -1066
    y[1]      primal_upper  966
    y[1]      mccormick2[1]  -1
    y[1]      mccormick3[1]  1
    y[2]      OBJ       -1034
    y[2]      primal_upper  934
    y[2]      mccormick2[2]  -1
    y[2]      mccormick3[2]  1
    y[3]      OBJ       -518
    y[3]      primal_upper  418
    y[3]      mccormick2[3]  -1
    y[3]      mccormick3[3]  1
    y[4]      OBJ       -604
    y[4]      primal_upper  504
    y[4]      mccormick2[4]  -1
    y[4]      mccormick3[4]  1
    y[5]      OBJ       -908
    y[5]      primal_upper  808
    y[5]      mccormick2[5]  -1
    y[5]      mccormick3[5]  1
    y[6]      OBJ       -497
    y[6]      primal_upper  397
    y[6]      mccormick2[6]  -1
    y[6]      mccormick3[6]  1
    y[7]      OBJ       -908
    y[7]      primal_upper  808
    y[7]      mccormick2[7]  -1
    y[7]      mccormick3[7]  1
    y[8]      OBJ       -662
    y[8]      primal_upper  562
    y[8]      mccormick2[8]  -1
    y[8]      mccormick3[8]  1
    y[9]      OBJ       -245
    y[9]      primal_upper  145
    y[9]      mccormick2[9]  -1
    y[9]      mccormick3[9]  1
    y[10]     OBJ       -711
    y[10]     primal_upper  611
    y[10]     mccormick2[10]  -1
    y[10]     mccormick3[10]  1
    y[11]     OBJ       -481
    y[11]     primal_upper  381
    y[11]     mccormick2[11]  -1
    y[11]     mccormick3[11]  1
    y[12]     OBJ       -695
    y[12]     primal_upper  595
    y[12]     mccormick2[12]  -1
    y[12]     mccormick3[12]  1
    y[13]     OBJ       -861
    y[13]     primal_upper  761
    y[13]     mccormick2[13]  -1
    y[13]     mccormick3[13]  1
    y[14]     OBJ       -953
    y[14]     primal_upper  853
    y[14]     mccormick2[14]  -1
    y[14]     mccormick3[14]  1
    y[15]     OBJ       -347
    y[15]     primal_upper  247
    y[15]     mccormick2[15]  -1
    y[15]     mccormick3[15]  1
    y[16]     OBJ       -871
    y[16]     primal_upper  771
    y[16]     mccormick2[16]  -1
    y[16]     mccormick3[16]  1
    y[17]     OBJ       -898
    y[17]     primal_upper  798
    y[17]     mccormick2[17]  -1
    y[17]     mccormick3[17]  1
    y[18]     OBJ       -176
    y[18]     primal_upper  76
    y[18]     mccormick2[18]  -1
    y[18]     mccormick3[18]  1
    y[19]     OBJ       -1034
    y[19]     primal_upper  934
    y[19]     mccormick2[19]  -1
    y[19]     mccormick3[19]  1
    y[20]     OBJ       -509
    y[20]     primal_upper  409
    y[20]     mccormick2[20]  -1
    y[20]     mccormick3[20]  1
    y[21]     OBJ       -515
    y[21]     primal_upper  415
    y[21]     mccormick2[21]  -1
    y[21]     mccormick3[21]  1
    y[22]     OBJ       -905
    y[22]     primal_upper  805
    y[22]     mccormick2[22]  -1
    y[22]     mccormick3[22]  1
    y[23]     OBJ       -1043
    y[23]     primal_upper  943
    y[23]     mccormick2[23]  -1
    y[23]     mccormick3[23]  1
    y[24]     OBJ       -734
    y[24]     primal_upper  634
    y[24]     mccormick2[24]  -1
    y[24]     mccormick3[24]  1
    y[25]     OBJ       -599
    y[25]     primal_upper  499
    y[25]     mccormick2[25]  -1
    y[25]     mccormick3[25]  1
    y[26]     OBJ       -1090
    y[26]     primal_upper  990
    y[26]     mccormick2[26]  -1
    y[26]     mccormick3[26]  1
    y[27]     OBJ       -530
    y[27]     primal_upper  430
    y[27]     mccormick2[27]  -1
    y[27]     mccormick3[27]  1
    y[28]     OBJ       -782
    y[28]     primal_upper  682
    y[28]     mccormick2[28]  -1
    y[28]     mccormick3[28]  1
    y[29]     OBJ       -459
    y[29]     primal_upper  359
    y[29]     mccormick2[29]  -1
    y[29]     mccormick3[29]  1
    y[30]     OBJ       -978
    y[30]     primal_upper  878
    y[30]     mccormick2[30]  -1
    y[30]     mccormick3[30]  1
    y[31]     OBJ       -332
    y[31]     primal_upper  232
    y[31]     mccormick2[31]  -1
    y[31]     mccormick3[31]  1
    y[32]     OBJ       -719
    y[32]     primal_upper  619
    y[32]     mccormick2[32]  -1
    y[32]     mccormick3[32]  1
    y[33]     OBJ       -666
    y[33]     primal_upper  566
    y[33]     mccormick2[33]  -1
    y[33]     mccormick3[33]  1
    y[34]     OBJ       -910
    y[34]     primal_upper  810
    y[34]     mccormick2[34]  -1
    y[34]     mccormick3[34]  1
    y[35]     OBJ       -562
    y[35]     primal_upper  462
    y[35]     mccormick2[35]  -1
    y[35]     mccormick3[35]  1
    y[36]     OBJ       -923
    y[36]     primal_upper  823
    y[36]     mccormick2[36]  -1
    y[36]     mccormick3[36]  1
    y[37]     OBJ       -1030
    y[37]     primal_upper  930
    y[37]     mccormick2[37]  -1
    y[37]     mccormick3[37]  1
    y[38]     OBJ       -380
    y[38]     primal_upper  280
    y[38]     mccormick2[38]  -1
    y[38]     mccormick3[38]  1
    y[39]     OBJ       -777
    y[39]     primal_upper  677
    y[39]     mccormick2[39]  -1
    y[39]     mccormick3[39]  1
    u[0]      primal_lower0  803
    u[0]      primal_lower1  52
    u[0]      primal_lower2  587
    u[0]      primal_lower3  334
    u[0]      primal_lower4  947
    u[0]      primal_lower5  136
    u[0]      primal_lower6  849
    u[0]      primal_lower7  569
    u[0]      primal_lower8  291
    u[0]      primal_lower9  405
    u[0]      interdiction[0]  1
    u[0]      mccormick1[0]  -1
    u[0]      mccormick3[0]  1
    u[1]      primal_lower0  669
    u[1]      primal_lower1  641
    u[1]      primal_lower2  325
    u[1]      primal_lower3  539
    u[1]      primal_lower4  20
    u[1]      primal_lower5  589
    u[1]      primal_lower6  602
    u[1]      primal_lower7  315
    u[1]      primal_lower8  236
    u[1]      primal_lower9  727
    u[1]      interdiction[1]  1
    u[1]      mccormick1[1]  -1
    u[1]      mccormick3[1]  1
    u[2]      primal_lower0  7
    u[2]      primal_lower1  781
    u[2]      primal_lower2  319
    u[2]      primal_lower3  687
    u[2]      primal_lower4  668
    u[2]      primal_lower5  321
    u[2]      primal_lower6  226
    u[2]      primal_lower7  357
    u[2]      primal_lower8  668
    u[2]      primal_lower9  281
    u[2]      interdiction[2]  1
    u[2]      mccormick1[2]  -1
    u[2]      mccormick3[2]  1
    u[3]      primal_lower0  494
    u[3]      primal_lower1  965
    u[3]      primal_lower2  94
    u[3]      primal_lower3  727
    u[3]      primal_lower4  824
    u[3]      primal_lower5  145
    u[3]      primal_lower6  518
    u[3]      primal_lower7  340
    u[3]      primal_lower8  928
    u[3]      primal_lower9  992
    u[3]      interdiction[3]  1
    u[3]      mccormick1[3]  -1
    u[3]      mccormick3[3]  1
    u[4]      primal_lower0  485
    u[4]      primal_lower1  271
    u[4]      primal_lower2  709
    u[4]      primal_lower3  665
    u[4]      primal_lower4  342
    u[4]      primal_lower5  131
    u[4]      primal_lower6  228
    u[4]      primal_lower7  787
    u[4]      primal_lower8  142
    u[4]      primal_lower9  503
    u[4]      interdiction[4]  1
    u[4]      mccormick1[4]  -1
    u[4]      mccormick3[4]  1
    u[5]      primal_lower0  151
    u[5]      primal_lower1  747
    u[5]      primal_lower2  935
    u[5]      primal_lower3  117
    u[5]      primal_lower4  510
    u[5]      primal_lower5  15
    u[5]      primal_lower6  916
    u[5]      primal_lower7  197
    u[5]      primal_lower8  542
    u[5]      primal_lower9  137
    u[5]      interdiction[5]  1
    u[5]      mccormick1[5]  -1
    u[5]      mccormick3[5]  1
    u[6]      primal_lower0  526
    u[6]      primal_lower1  412
    u[6]      primal_lower2  46
    u[6]      primal_lower3  422
    u[6]      primal_lower4  819
    u[6]      primal_lower5  576
    u[6]      primal_lower6  657
    u[6]      primal_lower7  580
    u[6]      primal_lower8  555
    u[6]      primal_lower9  376
    u[6]      interdiction[6]  1
    u[6]      mccormick1[6]  -1
    u[6]      mccormick3[6]  1
    u[7]      primal_lower0  211
    u[7]      primal_lower1  339
    u[7]      primal_lower2  443
    u[7]      primal_lower3  965
    u[7]      primal_lower4  950
    u[7]      primal_lower5  319
    u[7]      primal_lower6  300
    u[7]      primal_lower7  601
    u[7]      primal_lower8  198
    u[7]      primal_lower9  637
    u[7]      interdiction[7]  1
    u[7]      mccormick1[7]  -1
    u[7]      mccormick3[7]  1
    u[8]      primal_lower0  495
    u[8]      primal_lower1  305
    u[8]      primal_lower2  823
    u[8]      primal_lower3  723
    u[8]      primal_lower4  224
    u[8]      primal_lower5  349
    u[8]      primal_lower6  70
    u[8]      primal_lower7  805
    u[8]      primal_lower8  968
    u[8]      primal_lower9  449
    u[8]      interdiction[8]  1
    u[8]      mccormick1[8]  -1
    u[8]      mccormick3[8]  1
    u[9]      primal_lower0  977
    u[9]      primal_lower1  884
    u[9]      primal_lower2  681
    u[9]      primal_lower3  198
    u[9]      primal_lower4  687
    u[9]      primal_lower5  752
    u[9]      primal_lower6  237
    u[9]      primal_lower7  807
    u[9]      primal_lower8  463
    u[9]      primal_lower9  827
    u[9]      interdiction[9]  1
    u[9]      mccormick1[9]  -1
    u[9]      mccormick3[9]  1
    u[10]     primal_lower0  765
    u[10]     primal_lower1  274
    u[10]     primal_lower2  845
    u[10]     primal_lower3  748
    u[10]     primal_lower4  905
    u[10]     primal_lower5  294
    u[10]     primal_lower6  791
    u[10]     primal_lower7  875
    u[10]     primal_lower8  769
    u[10]     primal_lower9  647
    u[10]     interdiction[10]  1
    u[10]     mccormick1[10]  -1
    u[10]     mccormick3[10]  1
    u[11]     primal_lower0  704
    u[11]     primal_lower1  600
    u[11]     primal_lower2  672
    u[11]     primal_lower3  82
    u[11]     primal_lower4  947
    u[11]     primal_lower5  788
    u[11]     primal_lower6  161
    u[11]     primal_lower7  390
    u[11]     primal_lower8  939
    u[11]     primal_lower9  170
    u[11]     interdiction[11]  1
    u[11]     mccormick1[11]  -1
    u[11]     mccormick3[11]  1
    u[12]     primal_lower0  656
    u[12]     primal_lower1  858
    u[12]     primal_lower2  152
    u[12]     primal_lower3  4
    u[12]     primal_lower4  345
    u[12]     primal_lower5  598
    u[12]     primal_lower6  855
    u[12]     primal_lower7  862
    u[12]     primal_lower8  809
    u[12]     primal_lower9  634
    u[12]     interdiction[12]  1
    u[12]     mccormick1[12]  -1
    u[12]     mccormick3[12]  1
    u[13]     primal_lower0  889
    u[13]     primal_lower1  812
    u[13]     primal_lower2  25
    u[13]     primal_lower3  918
    u[13]     primal_lower4  247
    u[13]     primal_lower5  664
    u[13]     primal_lower6  725
    u[13]     primal_lower7  719
    u[13]     primal_lower8  111
    u[13]     primal_lower9  819
    u[13]     interdiction[13]  1
    u[13]     mccormick1[13]  -1
    u[13]     mccormick3[13]  1
    u[14]     primal_lower0  47
    u[14]     primal_lower1  372
    u[14]     primal_lower2  39
    u[14]     primal_lower3  790
    u[14]     primal_lower4  259
    u[14]     primal_lower5  392
    u[14]     primal_lower6  49
    u[14]     primal_lower7  669
    u[14]     primal_lower8  563
    u[14]     primal_lower9  361
    u[14]     interdiction[14]  1
    u[14]     mccormick1[14]  -1
    u[14]     mccormick3[14]  1
    u[15]     primal_lower0  499
    u[15]     primal_lower1  602
    u[15]     primal_lower2  363
    u[15]     primal_lower3  980
    u[15]     primal_lower4  285
    u[15]     primal_lower5  510
    u[15]     primal_lower6  291
    u[15]     primal_lower7  417
    u[15]     primal_lower8  77
    u[15]     primal_lower9  445
    u[15]     interdiction[15]  1
    u[15]     mccormick1[15]  -1
    u[15]     mccormick3[15]  1
    u[16]     primal_lower0  168
    u[16]     primal_lower1  882
    u[16]     primal_lower2  368
    u[16]     primal_lower3  268
    u[16]     primal_lower4  289
    u[16]     primal_lower5  758
    u[16]     primal_lower6  143
    u[16]     primal_lower7  886
    u[16]     primal_lower8  409
    u[16]     primal_lower9  58
    u[16]     interdiction[16]  1
    u[16]     mccormick1[16]  -1
    u[16]     mccormick3[16]  1
    u[17]     primal_lower0  638
    u[17]     primal_lower1  225
    u[17]     primal_lower2  374
    u[17]     primal_lower3  179
    u[17]     primal_lower4  116
    u[17]     primal_lower5  69
    u[17]     primal_lower6  442
    u[17]     primal_lower7  620
    u[17]     primal_lower8  524
    u[17]     primal_lower9  552
    u[17]     interdiction[17]  1
    u[17]     mccormick1[17]  -1
    u[17]     mccormick3[17]  1
    u[18]     primal_lower0  141
    u[18]     primal_lower1  443
    u[18]     primal_lower2  29
    u[18]     primal_lower3  445
    u[18]     primal_lower4  938
    u[18]     primal_lower5  143
    u[18]     primal_lower6  936
    u[18]     primal_lower7  91
    u[18]     primal_lower8  986
    u[18]     primal_lower9  751
    u[18]     interdiction[18]  1
    u[18]     mccormick1[18]  -1
    u[18]     mccormick3[18]  1
    u[19]     primal_lower0  514
    u[19]     primal_lower1  489
    u[19]     primal_lower2  50
    u[19]     primal_lower3  171
    u[19]     primal_lower4  572
    u[19]     primal_lower5  253
    u[19]     primal_lower6  418
    u[19]     primal_lower7  992
    u[19]     primal_lower8  132
    u[19]     primal_lower9  652
    u[19]     interdiction[19]  1
    u[19]     mccormick1[19]  -1
    u[19]     mccormick3[19]  1
    u[20]     primal_lower0  167
    u[20]     primal_lower1  192
    u[20]     primal_lower2  551
    u[20]     primal_lower3  178
    u[20]     primal_lower4  991
    u[20]     primal_lower5  708
    u[20]     primal_lower6  845
    u[20]     primal_lower7  349
    u[20]     primal_lower8  279
    u[20]     primal_lower9  497
    u[20]     interdiction[20]  1
    u[20]     mccormick1[20]  -1
    u[20]     mccormick3[20]  1
    u[21]     primal_lower0  910
    u[21]     primal_lower1  66
    u[21]     primal_lower2  390
    u[21]     primal_lower3  548
    u[21]     primal_lower4  141
    u[21]     primal_lower5  14
    u[21]     primal_lower6  627
    u[21]     primal_lower7  556
    u[21]     primal_lower8  389
    u[21]     primal_lower9  752
    u[21]     interdiction[21]  1
    u[21]     mccormick1[21]  -1
    u[21]     mccormick3[21]  1
    u[22]     primal_lower0  134
    u[22]     primal_lower1  932
    u[22]     primal_lower2  406
    u[22]     primal_lower3  190
    u[22]     primal_lower4  755
    u[22]     primal_lower5  992
    u[22]     primal_lower6  433
    u[22]     primal_lower7  332
    u[22]     primal_lower8  491
    u[22]     primal_lower9  16
    u[22]     interdiction[22]  1
    u[22]     mccormick1[22]  -1
    u[22]     mccormick3[22]  1
    u[23]     primal_lower0  586
    u[23]     primal_lower1  650
    u[23]     primal_lower2  922
    u[23]     primal_lower3  996
    u[23]     primal_lower4  525
    u[23]     primal_lower5  590
    u[23]     primal_lower6  931
    u[23]     primal_lower7  280
    u[23]     primal_lower8  493
    u[23]     primal_lower9  716
    u[23]     interdiction[23]  1
    u[23]     mccormick1[23]  -1
    u[23]     mccormick3[23]  1
    u[24]     primal_lower0  559
    u[24]     primal_lower1  657
    u[24]     primal_lower2  47
    u[24]     primal_lower3  451
    u[24]     primal_lower4  912
    u[24]     primal_lower5  629
    u[24]     primal_lower6  446
    u[24]     primal_lower7  669
    u[24]     primal_lower8  576
    u[24]     primal_lower9  769
    u[24]     interdiction[24]  1
    u[24]     mccormick1[24]  -1
    u[24]     mccormick3[24]  1
    u[25]     primal_lower0  234
    u[25]     primal_lower1  838
    u[25]     primal_lower2  314
    u[25]     primal_lower3  224
    u[25]     primal_lower4  425
    u[25]     primal_lower5  546
    u[25]     primal_lower6  791
    u[25]     primal_lower7  304
    u[25]     primal_lower8  505
    u[25]     primal_lower9  436
    u[25]     interdiction[25]  1
    u[25]     mccormick1[25]  -1
    u[25]     mccormick3[25]  1
    u[26]     primal_lower0  783
    u[26]     primal_lower1  93
    u[26]     primal_lower2  967
    u[26]     primal_lower3  623
    u[26]     primal_lower4  444
    u[26]     primal_lower5  281
    u[26]     primal_lower6  570
    u[26]     primal_lower7  821
    u[26]     primal_lower8  196
    u[26]     primal_lower9  993
    u[26]     interdiction[26]  1
    u[26]     mccormick1[26]  -1
    u[26]     mccormick3[26]  1
    u[27]     primal_lower0  921
    u[27]     primal_lower1  417
    u[27]     primal_lower2  897
    u[27]     primal_lower3  219
    u[27]     primal_lower4  140
    u[27]     primal_lower5  469
    u[27]     primal_lower6  858
    u[27]     primal_lower7  359
    u[27]     primal_lower8  12
    u[27]     primal_lower9  763
    u[27]     interdiction[27]  1
    u[27]     mccormick1[27]  -1
    u[27]     mccormick3[27]  1
    u[28]     primal_lower0  88
    u[28]     primal_lower1  929
    u[28]     primal_lower2  288
    u[28]     primal_lower3  75
    u[28]     primal_lower4  48
    u[28]     primal_lower5  885
    u[28]     primal_lower6  118
    u[28]     primal_lower7  950
    u[28]     primal_lower8  336
    u[28]     primal_lower9  810
    u[28]     interdiction[28]  1
    u[28]     mccormick1[28]  -1
    u[28]     mccormick3[28]  1
    u[29]     primal_lower0  334
    u[29]     primal_lower1  562
    u[29]     primal_lower2  774
    u[29]     primal_lower3  908
    u[29]     primal_lower4  629
    u[29]     primal_lower5  950
    u[29]     primal_lower6  923
    u[29]     primal_lower7  828
    u[29]     primal_lower8  365
    u[29]     primal_lower9  952
    u[29]     interdiction[29]  1
    u[29]     mccormick1[29]  -1
    u[29]     mccormick3[29]  1
    u[30]     primal_lower0  32
    u[30]     primal_lower1  581
    u[30]     primal_lower2  288
    u[30]     primal_lower3  335
    u[30]     primal_lower4  476
    u[30]     primal_lower5  305
    u[30]     primal_lower6  650
    u[30]     primal_lower7  598
    u[30]     primal_lower8  404
    u[30]     primal_lower9  178
    u[30]     interdiction[30]  1
    u[30]     mccormick1[30]  -1
    u[30]     mccormick3[30]  1
    u[31]     primal_lower0  963
    u[31]     primal_lower1  955
    u[31]     primal_lower2  699
    u[31]     primal_lower3  725
    u[31]     primal_lower4  926
    u[31]     primal_lower5  951
    u[31]     primal_lower6  204
    u[31]     primal_lower7  753
    u[31]     primal_lower8  54
    u[31]     primal_lower9  701
    u[31]     interdiction[31]  1
    u[31]     mccormick1[31]  -1
    u[31]     mccormick3[31]  1
    u[32]     primal_lower0  936
    u[32]     primal_lower1  874
    u[32]     primal_lower2  552
    u[32]     primal_lower3  484
    u[32]     primal_lower4  433
    u[32]     primal_lower5  614
    u[32]     primal_lower6  815
    u[32]     primal_lower7  150
    u[32]     primal_lower8  433
    u[32]     primal_lower9  362
    u[32]     interdiction[32]  1
    u[32]     mccormick1[32]  -1
    u[32]     mccormick3[32]  1
    u[33]     primal_lower0  437
    u[33]     primal_lower1  145
    u[33]     primal_lower2  381
    u[33]     primal_lower3  835
    u[33]     primal_lower4  828
    u[33]     primal_lower5  789
    u[33]     primal_lower6  842
    u[33]     primal_lower7  195
    u[33]     primal_lower8  700
    u[33]     primal_lower9  679
    u[33]     interdiction[33]  1
    u[33]     mccormick1[33]  -1
    u[33]     mccormick3[33]  1
    u[34]     primal_lower0  531
    u[34]     primal_lower1  601
    u[34]     primal_lower2  707
    u[34]     primal_lower3  915
    u[34]     primal_lower4  552
    u[34]     primal_lower5  589
    u[34]     primal_lower6  510
    u[34]     primal_lower7  337
    u[34]     primal_lower8  432
    u[34]     primal_lower9  773
    u[34]     interdiction[34]  1
    u[34]     mccormick1[34]  -1
    u[34]     mccormick3[34]  1
    u[35]     primal_lower0  193
    u[35]     primal_lower1  233
    u[35]     primal_lower2  465
    u[35]     primal_lower3  307
    u[35]     primal_lower4  788
    u[35]     primal_lower5  565
    u[35]     primal_lower6  210
    u[35]     primal_lower7  559
    u[35]     primal_lower8  212
    u[35]     primal_lower9  99
    u[35]     interdiction[35]  1
    u[35]     mccormick1[35]  -1
    u[35]     mccormick3[35]  1
    u[36]     primal_lower0  828
    u[36]     primal_lower1  462
    u[36]     primal_lower2  172
    u[36]     primal_lower3  976
    u[36]     primal_lower4  485
    u[36]     primal_lower5  34
    u[36]     primal_lower6  611
    u[36]     primal_lower7  410
    u[36]     primal_lower8  637
    u[36]     primal_lower9  750
    u[36]     interdiction[36]  1
    u[36]     mccormick1[36]  -1
    u[36]     mccormick3[36]  1
    u[37]     primal_lower0  578
    u[37]     primal_lower1  133
    u[37]     primal_lower2  610
    u[37]     primal_lower3  167
    u[37]     primal_lower4  912
    u[37]     primal_lower5  553
    u[37]     primal_lower6  558
    u[37]     primal_lower7  80
    u[37]     primal_lower8  8
    u[37]     primal_lower9  284
    u[37]     interdiction[37]  1
    u[37]     mccormick1[37]  -1
    u[37]     mccormick3[37]  1
    u[38]     primal_lower0  529
    u[38]     primal_lower1  199
    u[38]     primal_lower2  457
    u[38]     primal_lower3  57
    u[38]     primal_lower4  406
    u[38]     primal_lower5  867
    u[38]     primal_lower6  332
    u[38]     primal_lower7  167
    u[38]     primal_lower8  646
    u[38]     primal_lower9  603
    u[38]     interdiction[38]  1
    u[38]     mccormick1[38]  -1
    u[38]     mccormick3[38]  1
    u[39]     primal_lower0  705
    u[39]     primal_lower1  736
    u[39]     primal_lower2  193
    u[39]     primal_lower3  50
    u[39]     primal_lower4  723
    u[39]     primal_lower5  324
    u[39]     primal_lower6  169
    u[39]     primal_lower7  991
    u[39]     primal_lower8  291
    u[39]     primal_lower9  331
    u[39]     interdiction[39]  1
    u[39]     mccormick1[39]  -1
    u[39]     mccormick3[39]  1
    z[0]      primal_upper  74
    z[0]      mccormick1[0]  1
    z[0]      mccormick2[0]  1
    z[0]      mccormick3[0]  -1
    z[1]      primal_upper  97
    z[1]      mccormick1[1]  1
    z[1]      mccormick2[1]  1
    z[1]      mccormick3[1]  -1
    z[2]      primal_upper  93
    z[2]      mccormick1[2]  1
    z[2]      mccormick2[2]  1
    z[2]      mccormick3[2]  -1
    z[3]      primal_upper  42
    z[3]      mccormick1[3]  1
    z[3]      mccormick2[3]  1
    z[3]      mccormick3[3]  -1
    z[4]      primal_upper  50
    z[4]      mccormick1[4]  1
    z[4]      mccormick2[4]  1
    z[4]      mccormick3[4]  -1
    z[5]      primal_upper  81
    z[5]      mccormick1[5]  1
    z[5]      mccormick2[5]  1
    z[5]      mccormick3[5]  -1
    z[6]      primal_upper  40
    z[6]      mccormick1[6]  1
    z[6]      mccormick2[6]  1
    z[6]      mccormick3[6]  -1
    z[7]      primal_upper  81
    z[7]      mccormick1[7]  1
    z[7]      mccormick2[7]  1
    z[7]      mccormick3[7]  -1
    z[8]      primal_upper  56
    z[8]      mccormick1[8]  1
    z[8]      mccormick2[8]  1
    z[8]      mccormick3[8]  -1
    z[9]      primal_upper  14
    z[9]      mccormick1[9]  1
    z[9]      mccormick2[9]  1
    z[9]      mccormick3[9]  -1
    z[10]     primal_upper  61
    z[10]     mccormick1[10]  1
    z[10]     mccormick2[10]  1
    z[10]     mccormick3[10]  -1
    z[11]     primal_upper  38
    z[11]     mccormick1[11]  1
    z[11]     mccormick2[11]  1
    z[11]     mccormick3[11]  -1
    z[12]     primal_upper  60
    z[12]     mccormick1[12]  1
    z[12]     mccormick2[12]  1
    z[12]     mccormick3[12]  -1
    z[13]     primal_upper  76
    z[13]     mccormick1[13]  1
    z[13]     mccormick2[13]  1
    z[13]     mccormick3[13]  -1
    z[14]     primal_upper  85
    z[14]     mccormick1[14]  1
    z[14]     mccormick2[14]  1
    z[14]     mccormick3[14]  -1
    z[15]     primal_upper  25
    z[15]     mccormick1[15]  1
    z[15]     mccormick2[15]  1
    z[15]     mccormick3[15]  -1
    z[16]     primal_upper  77
    z[16]     mccormick1[16]  1
    z[16]     mccormick2[16]  1
    z[16]     mccormick3[16]  -1
    z[17]     primal_upper  80
    z[17]     mccormick1[17]  1
    z[17]     mccormick2[17]  1
    z[17]     mccormick3[17]  -1
    z[18]     primal_upper  8
    z[18]     mccormick1[18]  1
    z[18]     mccormick2[18]  1
    z[18]     mccormick3[18]  -1
    z[19]     primal_upper  93
    z[19]     mccormick1[19]  1
    z[19]     mccormick2[19]  1
    z[19]     mccormick3[19]  -1
    z[20]     primal_upper  41
    z[20]     mccormick1[20]  1
    z[20]     mccormick2[20]  1
    z[20]     mccormick3[20]  -1
    z[21]     primal_upper  42
    z[21]     mccormick1[21]  1
    z[21]     mccormick2[21]  1
    z[21]     mccormick3[21]  -1
    z[22]     primal_upper  80
    z[22]     mccormick1[22]  1
    z[22]     mccormick2[22]  1
    z[22]     mccormick3[22]  -1
    z[23]     primal_upper  94
    z[23]     mccormick1[23]  1
    z[23]     mccormick2[23]  1
    z[23]     mccormick3[23]  -1
    z[24]     primal_upper  63
    z[24]     mccormick1[24]  1
    z[24]     mccormick2[24]  1
    z[24]     mccormick3[24]  -1
    z[25]     primal_upper  50
    z[25]     mccormick1[25]  1
    z[25]     mccormick2[25]  1
    z[25]     mccormick3[25]  -1
    z[26]     primal_upper  99
    z[26]     mccormick1[26]  1
    z[26]     mccormick2[26]  1
    z[26]     mccormick3[26]  -1
    z[27]     primal_upper  43
    z[27]     mccormick1[27]  1
    z[27]     mccormick2[27]  1
    z[27]     mccormick3[27]  -1
    z[28]     primal_upper  68
    z[28]     mccormick1[28]  1
    z[28]     mccormick2[28]  1
    z[28]     mccormick3[28]  -1
    z[29]     primal_upper  36
    z[29]     mccormick1[29]  1
    z[29]     mccormick2[29]  1
    z[29]     mccormick3[29]  -1
    z[30]     primal_upper  88
    z[30]     mccormick1[30]  1
    z[30]     mccormick2[30]  1
    z[30]     mccormick3[30]  -1
    z[31]     primal_upper  23
    z[31]     mccormick1[31]  1
    z[31]     mccormick2[31]  1
    z[31]     mccormick3[31]  -1
    z[32]     primal_upper  62
    z[32]     mccormick1[32]  1
    z[32]     mccormick2[32]  1
    z[32]     mccormick3[32]  -1
    z[33]     primal_upper  57
    z[33]     mccormick1[33]  1
    z[33]     mccormick2[33]  1
    z[33]     mccormick3[33]  -1
    z[34]     primal_upper  81
    z[34]     mccormick1[34]  1
    z[34]     mccormick2[34]  1
    z[34]     mccormick3[34]  -1
    z[35]     primal_upper  46
    z[35]     mccormick1[35]  1
    z[35]     mccormick2[35]  1
    z[35]     mccormick3[35]  -1
    z[36]     primal_upper  82
    z[36]     mccormick1[36]  1
    z[36]     mccormick2[36]  1
    z[36]     mccormick3[36]  -1
    z[37]     primal_upper  93
    z[37]     mccormick1[37]  1
    z[37]     mccormick2[37]  1
    z[37]     mccormick3[37]  -1
    z[38]     primal_upper  28
    z[38]     mccormick1[38]  1
    z[38]     mccormick2[38]  1
    z[38]     mccormick3[38]  -1
    z[39]     primal_upper  68
    z[39]     mccormick1[39]  1
    z[39]     mccormick2[39]  1
    z[39]     mccormick3[39]  -1
    MARKER    'MARKER'                 'INTEND'
RHS
    RHS1      primal_upper  6188
    RHS1      primal_lower0  5071
    RHS1      primal_lower1  965
    RHS1      primal_lower2  4489
    RHS1      primal_lower3  996
    RHS1      primal_lower4  991
    RHS1      primal_lower5  4864
    RHS1      primal_lower6  5214
    RHS1      primal_lower7  5391
    RHS1      primal_lower8  4442
    RHS1      primal_lower9  10943
    RHS1      interdiction[0]  1
    RHS1      interdiction[1]  1
    RHS1      interdiction[2]  1
    RHS1      interdiction[3]  1
    RHS1      interdiction[4]  1
    RHS1      interdiction[5]  1
    RHS1      interdiction[6]  1
    RHS1      interdiction[7]  1
    RHS1      interdiction[8]  1
    RHS1      interdiction[9]  1
    RHS1      interdiction[10]  1
    RHS1      interdiction[11]  1
    RHS1      interdiction[12]  1
    RHS1      interdiction[13]  1
    RHS1      interdiction[14]  1
    RHS1      interdiction[15]  1
    RHS1      interdiction[16]  1
    RHS1      interdiction[17]  1
    RHS1      interdiction[18]  1
    RHS1      interdiction[19]  1
    RHS1      interdiction[20]  1
    RHS1      interdiction[21]  1
    RHS1      interdiction[22]  1
    RHS1      interdiction[23]  1
    RHS1      interdiction[24]  1
    RHS1      interdiction[25]  1
    RHS1      interdiction[26]  1
    RHS1      interdiction[27]  1
    RHS1      interdiction[28]  1
    RHS1      interdiction[29]  1
    RHS1      interdiction[30]  1
    RHS1      interdiction[31]  1
    RHS1      interdiction[32]  1
    RHS1      interdiction[33]  1
    RHS1      interdiction[34]  1
    RHS1      interdiction[35]  1
    RHS1      interdiction[36]  1
    RHS1      interdiction[37]  1
    RHS1      interdiction[38]  1
    RHS1      interdiction[39]  1
    RHS1      mccormick3[0]  1
    RHS1      mccormick3[1]  1
    RHS1      mccormick3[2]  1
    RHS1      mccormick3[3]  1
    RHS1      mccormick3[4]  1
    RHS1      mccormick3[5]  1
    RHS1      mccormick3[6]  1
    RHS1      mccormick3[7]  1
    RHS1      mccormick3[8]  1
    RHS1      mccormick3[9]  1
    RHS1      mccormick3[10]  1
    RHS1      mccormick3[11]  1
    RHS1      mccormick3[12]  1
    RHS1      mccormick3[13]  1
    RHS1      mccormick3[14]  1
    RHS1      mccormick3[15]  1
    RHS1      mccormick3[16]  1
    RHS1      mccormick3[17]  1
    RHS1      mccormick3[18]  1
    RHS1      mccormick3[19]  1
    RHS1      mccormick3[20]  1
    RHS1      mccormick3[21]  1
    RHS1      mccormick3[22]  1
    RHS1      mccormick3[23]  1
    RHS1      mccormick3[24]  1
    RHS1      mccormick3[25]  1
    RHS1      mccormick3[26]  1
    RHS1      mccormick3[27]  1
    RHS1      mccormick3[28]  1
    RHS1      mccormick3[29]  1
    RHS1      mccormick3[30]  1
    RHS1      mccormick3[31]  1
    RHS1      mccormick3[32]  1
    RHS1      mccormick3[33]  1
    RHS1      mccormick3[34]  1
    RHS1      mccormick3[35]  1
    RHS1      mccormick3[36]  1
    RHS1      mccormick3[37]  1
    RHS1      mccormick3[38]  1
    RHS1      mccormick3[39]  1
BOUNDS
 BV BND1      x[0]    
 BV BND1      x[1]    
 BV BND1      x[2]    
 BV BND1      x[3]    
 BV BND1      x[4]    
 BV BND1      x[5]    
 BV BND1      x[6]    
 BV BND1      x[7]    
 BV BND1      x[8]    
 BV BND1      x[9]    
 BV BND1      x[10]   
 BV BND1      x[11]   
 BV BND1      x[12]   
 BV BND1      x[13]   
 BV BND1      x[14]   
 BV BND1      x[15]   
 BV BND1      x[16]   
 BV BND1      x[17]   
 BV BND1      x[18]   
 BV BND1      x[19]   
 BV BND1      x[20]   
 BV BND1      x[21]   
 BV BND1      x[22]   
 BV BND1      x[23]   
 BV BND1      x[24]   
 BV BND1      x[25]   
 BV BND1      x[26]   
 BV BND1      x[27]   
 BV BND1      x[28]   
 BV BND1      x[29]   
 BV BND1      x[30]   
 BV BND1      x[31]   
 BV BND1      x[32]   
 BV BND1      x[33]   
 BV BND1      x[34]   
 BV BND1      x[35]   
 BV BND1      x[36]   
 BV BND1      x[37]   
 BV BND1      x[38]   
 BV BND1      x[39]   
 BV BND1      y[0]    
 BV BND1      y[1]    
 BV BND1      y[2]    
 BV BND1      y[3]    
 BV BND1      y[4]    
 BV BND1      y[5]    
 BV BND1      y[6]    
 BV BND1      y[7]    
 BV BND1      y[8]    
 BV BND1      y[9]    
 BV BND1      y[10]   
 BV BND1      y[11]   
 BV BND1      y[12]   
 BV BND1      y[13]   
 BV BND1      y[14]   
 BV BND1      y[15]   
 BV BND1      y[16]   
 BV BND1      y[17]   
 BV BND1      y[18]   
 BV BND1      y[19]   
 BV BND1      y[20]   
 BV BND1      y[21]   
 BV BND1      y[22]   
 BV BND1      y[23]   
 BV BND1      y[24]   
 BV BND1      y[25]   
 BV BND1      y[26]   
 BV BND1      y[27]   
 BV BND1      y[28]   
 BV BND1      y[29]   
 BV BND1      y[30]   
 BV BND1      y[31]   
 BV BND1      y[32]   
 BV BND1      y[33]   
 BV BND1      y[34]   
 BV BND1      y[35]   
 BV BND1      y[36]   
 BV BND1      y[37]   
 BV BND1      y[38]   
 BV BND1      y[39]   
 BV BND1      u[0]    
 BV BND1      u[1]    
 BV BND1      u[2]    
 BV BND1      u[3]    
 BV BND1      u[4]    
 BV BND1      u[5]    
 BV BND1      u[6]    
 BV BND1      u[7]    
 BV BND1      u[8]    
 BV BND1      u[9]    
 BV BND1      u[10]   
 BV BND1      u[11]   
 BV BND1      u[12]   
 BV BND1      u[13]   
 BV BND1      u[14]   
 BV BND1      u[15]   
 BV BND1      u[16]   
 BV BND1      u[17]   
 BV BND1      u[18]   
 BV BND1      u[19]   
 BV BND1      u[20]   
 BV BND1      u[21]   
 BV BND1      u[22]   
 BV BND1      u[23]   
 BV BND1      u[24]   
 BV BND1      u[25]   
 BV BND1      u[26]   
 BV BND1      u[27]   
 BV BND1      u[28]   
 BV BND1      u[29]   
 BV BND1      u[30]   
 BV BND1      u[31]   
 BV BND1      u[32]   
 BV BND1      u[33]   
 BV BND1      u[34]   
 BV BND1      u[35]   
 BV BND1      u[36]   
 BV BND1      u[37]   
 BV BND1      u[38]   
 BV BND1      u[39]   
 BV BND1      z[0]    
 BV BND1      z[1]    
 BV BND1      z[2]    
 BV BND1      z[3]    
 BV BND1      z[4]    
 BV BND1      z[5]    
 BV BND1      z[6]    
 BV BND1      z[7]    
 BV BND1      z[8]    
 BV BND1      z[9]    
 BV BND1      z[10]   
 BV BND1      z[11]   
 BV BND1      z[12]   
 BV BND1      z[13]   
 BV BND1      z[14]   
 BV BND1      z[15]   
 BV BND1      z[16]   
 BV BND1      z[17]   
 BV BND1      z[18]   
 BV BND1      z[19]   
 BV BND1      z[20]   
 BV BND1      z[21]   
 BV BND1      z[22]   
 BV BND1      z[23]   
 BV BND1      z[24]   
 BV BND1      z[25]   
 BV BND1      z[26]   
 BV BND1      z[27]   
 BV BND1      z[28]   
 BV BND1      z[29]   
 BV BND1      z[30]   
 BV BND1      z[31]   
 BV BND1      z[32]   
 BV BND1      z[33]   
 BV BND1      z[34]   
 BV BND1      z[35]   
 BV BND1      z[36]   
 BV BND1      z[37]   
 BV BND1      z[38]   
 BV BND1      z[39]   
ENDATA
